data/OOEBPP/R1000/BPP_1000_120_0.2_0.8_8.txt.ins
1000
120 120
1 96 121
2 96 726
3 96 112
4 96 530
5 96 836
6 96 14
7 96 604
8 96 948
9 96 685
10 96 279
11 96 834
12 96 220
13 96 682
14 96 751
15 96 355
16 95 911
17 95 438
18 95 361
19 95 641
20 95 532
21 95 643
22 95 82
23 95 336
24 95 749
25 95 830
26 95 970
27 94 934
28 94 459
29 94 734
30 94 164
31 94 675
32 94 418
33 94 132
34 94 6
35 94 178
36 94 713
37 94 297
38 94 543
39 94 807
40 93 873
41 93 660
42 93 671
43 93 616
44 93 456
45 93 39
46 93 455
47 93 796
48 93 176
49 93 410
50 93 826
51 93 434
52 92 412
53 92 250
54 92 375
55 92 83
56 92 519
57 92 508
58 92 364
59 92 644
60 92 444
61 92 489
62 92 249
63 91 308
64 91 396
65 91 409
66 91 533
67 91 285
68 91 317
69 91 90
70 91 438
71 91 143
72 91 775
73 91 691
74 91 791
75 91 212
76 90 86
77 90 580
78 90 424
79 90 71
80 90 769
81 90 839
82 90 575
83 90 630
84 90 135
85 90 517
86 90 261
87 90 457
88 90 118
89 90 535
90 90 526
91 90 882
92 90 862
93 90 667
94 90 380
95 90 385
96 89 760
97 89 47
98 89 372
99 89 439
100 89 871
101 89 400
102 89 833
103 89 450
104 89 363
105 89 721
106 89 365
107 89 624
108 89 893
109 89 687
110 89 206
111 88 443
112 88 358
113 88 117
114 88 394
115 88 498
116 88 811
117 88 292
118 88 82
119 88 428
120 88 402
121 88 515
122 88 436
123 88 177
124 87 90
125 87 869
126 87 596
127 87 569
128 87 697
129 87 882
130 86 609
131 86 611
132 86 157
133 86 912
134 86 548
135 86 520
136 86 94
137 86 159
138 86 693
139 86 200
140 86 764
141 86 991
142 86 897
143 86 154
144 86 287
145 86 427
146 86 565
147 86 899
148 86 2
149 85 513
150 85 716
151 85 234
152 85 398
153 85 107
154 85 95
155 85 530
156 85 574
157 85 547
158 85 641
159 84 863
160 84 807
161 84 411
162 84 741
163 84 634
164 84 711
165 84 681
166 84 184
167 84 444
168 84 757
169 84 817
170 84 827
171 84 517
172 84 125
173 84 820
174 83 649
175 83 230
176 83 272
177 83 647
178 83 838
179 83 135
180 83 857
181 83 749
182 83 541
183 83 861
184 83 808
185 82 691
186 82 79
187 82 129
188 82 394
189 82 432
190 82 763
191 82 44
192 82 838
193 82 115
194 82 357
195 82 560
196 82 650
197 82 298
198 82 872
199 82 443
200 81 661
201 81 875
202 81 714
203 81 192
204 81 941
205 81 270
206 81 495
207 81 742
208 81 227
209 81 440
210 81 134
211 81 198
212 81 946
213 81 946
214 81 858
215 80 879
216 80 487
217 80 62
218 80 899
219 80 541
220 80 618
221 80 359
222 80 23
223 80 356
224 80 634
225 80 78
226 80 556
227 80 798
228 80 88
229 80 130
230 80 128
231 80 877
232 80 46
233 79 291
234 79 456
235 79 844
236 79 21
237 79 409
238 79 745
239 79 347
240 79 414
241 79 529
242 79 605
243 79 753
244 79 588
245 79 274
246 79 823
247 79 783
248 78 948
249 78 654
250 78 728
251 78 986
252 78 909
253 78 569
254 78 84
255 78 725
256 78 249
257 78 672
258 78 737
259 78 65
260 78 454
261 78 345
262 78 75
263 77 471
264 77 961
265 77 301
266 77 124
267 77 856
268 77 149
269 77 322
270 77 887
271 77 708
272 77 620
273 77 613
274 77 768
275 77 189
276 77 616
277 77 827
278 77 977
279 76 412
280 76 46
281 76 226
282 76 157
283 76 851
284 76 435
285 76 884
286 76 444
287 76 868
288 76 794
289 76 16
290 76 158
291 76 982
292 76 481
293 76 623
294 76 916
295 76 118
296 75 570
297 75 599
298 75 448
299 75 604
300 75 654
301 75 373
302 75 173
303 75 940
304 75 436
305 75 270
306 75 972
307 75 231
308 75 685
309 75 76
310 75 394
311 75 683
312 75 962
313 75 131
314 74 346
315 74 25
316 74 391
317 74 596
318 74 454
319 74 966
320 74 803
321 74 687
322 74 648
323 74 31
324 74 812
325 74 625
326 74 287
327 73 223
328 73 960
329 73 320
330 73 798
331 73 633
332 73 672
333 73 641
334 73 894
335 73 824
336 73 101
337 73 438
338 73 624
339 73 910
340 73 803
341 73 332
342 72 275
343 72 247
344 72 656
345 72 426
346 72 677
347 72 558
348 72 125
349 72 188
350 72 254
351 72 80
352 72 166
353 71 18
354 71 851
355 71 741
356 71 413
357 71 387
358 71 969
359 71 30
360 71 626
361 71 32
362 71 436
363 71 771
364 71 457
365 70 195
366 70 387
367 70 277
368 70 102
369 70 658
370 70 380
371 70 756
372 70 124
373 70 730
374 70 258
375 70 958
376 70 899
377 70 966
378 70 605
379 70 663
380 70 21
381 69 392
382 69 777
383 69 733
384 69 846
385 69 139
386 69 289
387 69 38
388 69 924
389 69 591
390 69 143
391 69 644
392 69 512
393 69 168
394 69 507
395 69 581
396 69 578
397 69 842
398 69 157
399 69 481
400 68 844
401 68 706
402 68 572
403 68 438
404 68 881
405 68 519
406 68 603
407 68 104
408 68 419
409 68 420
410 68 16
411 67 732
412 67 856
413 67 195
414 67 873
415 67 538
416 67 981
417 67 699
418 67 111
419 67 408
420 67 410
421 67 875
422 67 255
423 66 37
424 66 938
425 66 963
426 66 614
427 66 610
428 66 318
429 66 193
430 66 538
431 65 481
432 65 297
433 65 28
434 65 412
435 65 625
436 65 249
437 65 10
438 65 400
439 65 488
440 65 379
441 65 427
442 65 383
443 64 951
444 64 377
445 64 565
446 64 283
447 64 158
448 64 692
449 64 852
450 64 335
451 64 515
452 64 886
453 64 649
454 64 576
455 64 435
456 64 736
457 64 577
458 63 238
459 63 292
460 63 943
461 63 357
462 63 665
463 63 172
464 63 982
465 63 338
466 63 718
467 63 852
468 63 918
469 63 878
470 63 175
471 63 131
472 62 40
473 62 972
474 62 472
475 62 269
476 62 185
477 62 712
478 62 522
479 62 758
480 62 763
481 62 809
482 62 579
483 61 363
484 61 364
485 61 530
486 61 922
487 61 610
488 61 924
489 61 538
490 61 307
491 61 211
492 60 337
493 60 844
494 60 650
495 60 301
496 60 986
497 60 512
498 60 19
499 60 578
500 60 411
501 60 394
502 60 194
503 60 92
504 59 968
505 59 244
506 59 311
507 59 395
508 59 36
509 59 571
510 59 165
511 59 673
512 59 311
513 58 965
514 58 246
515 58 407
516 58 256
517 58 890
518 58 444
519 58 700
520 58 639
521 58 965
522 58 607
523 58 916
524 58 652
525 58 926
526 58 911
527 58 848
528 58 99
529 58 571
530 58 67
531 58 746
532 58 271
533 58 885
534 57 378
535 57 546
536 57 25
537 57 568
538 57 520
539 57 651
540 57 968
541 57 6
542 57 244
543 57 561
544 57 469
545 57 81
546 57 13
547 57 808
548 56 272
549 56 988
550 56 972
551 56 281
552 56 122
553 56 444
554 56 220
555 56 882
556 56 294
557 56 501
558 56 178
559 55 43
560 55 725
561 55 72
562 55 404
563 55 39
564 55 606
565 55 814
566 55 820
567 55 199
568 55 862
569 55 940
570 55 298
571 55 867
572 54 203
573 54 859
574 54 175
575 54 553
576 54 3
577 54 12
578 54 949
579 54 353
580 54 577
581 54 106
582 54 188
583 54 555
584 54 287
585 54 96
586 54 549
587 54 501
588 53 473
589 53 122
590 53 763
591 53 501
592 53 136
593 53 888
594 53 791
595 53 591
596 53 889
597 53 733
598 53 217
599 53 915
600 53 936
601 53 102
602 53 363
603 52 978
604 52 560
605 52 602
606 52 363
607 52 587
608 52 362
609 52 987
610 52 178
611 52 743
612 52 859
613 52 144
614 52 137
615 52 576
616 52 243
617 52 149
618 52 652
619 52 661
620 52 225
621 52 400
622 52 779
623 51 613
624 51 569
625 51 791
626 51 729
627 51 991
628 51 220
629 51 79
630 51 186
631 51 333
632 51 533
633 51 430
634 51 181
635 51 160
636 50 82
637 50 781
638 50 24
639 50 75
640 50 700
641 50 352
642 50 592
643 50 329
644 50 942
645 50 895
646 50 78
647 50 827
648 50 283
649 50 36
650 50 593
651 50 788
652 50 605
653 49 147
654 49 403
655 49 850
656 49 295
657 49 611
658 49 688
659 49 679
660 49 565
661 49 0
662 49 682
663 49 808
664 49 288
665 49 479
666 49 85
667 49 958
668 49 160
669 48 475
670 48 24
671 48 844
672 48 231
673 48 332
674 48 137
675 48 436
676 48 638
677 48 86
678 48 724
679 48 966
680 48 822
681 47 976
682 47 412
683 47 653
684 47 105
685 47 673
686 47 329
687 47 5
688 47 636
689 47 590
690 47 30
691 47 456
692 47 311
693 46 928
694 46 125
695 46 197
696 46 787
697 46 784
698 46 160
699 46 463
700 46 411
701 46 390
702 46 308
703 46 76
704 46 930
705 46 105
706 46 82
707 46 611
708 46 336
709 46 600
710 46 956
711 45 412
712 45 253
713 45 590
714 45 488
715 45 569
716 45 500
717 45 812
718 45 291
719 45 819
720 45 117
721 45 397
722 45 83
723 44 297
724 44 109
725 44 939
726 44 541
727 44 957
728 44 301
729 44 208
730 44 955
731 43 961
732 43 805
733 43 16
734 43 802
735 43 302
736 43 956
737 43 242
738 43 831
739 43 80
740 43 429
741 42 947
742 42 313
743 42 48
744 42 413
745 42 841
746 42 280
747 42 852
748 42 97
749 42 169
750 42 191
751 42 15
752 41 901
753 41 380
754 41 913
755 41 965
756 41 644
757 41 331
758 41 910
759 41 834
760 41 502
761 41 469
762 41 278
763 41 521
764 41 399
765 40 864
766 40 981
767 40 892
768 40 470
769 40 883
770 40 64
771 40 682
772 40 264
773 40 352
774 40 263
775 40 274
776 40 928
777 40 683
778 40 825
779 39 43
780 39 864
781 39 396
782 39 987
783 39 136
784 39 456
785 39 216
786 39 292
787 39 815
788 38 458
789 38 809
790 38 252
791 38 621
792 38 680
793 38 799
794 38 399
795 38 543
796 38 944
797 38 349
798 38 172
799 38 939
800 38 643
801 38 495
802 38 351
803 38 881
804 37 435
805 37 532
806 37 361
807 37 192
808 37 572
809 37 927
810 37 903
811 37 209
812 37 388
813 37 114
814 37 375
815 37 542
816 37 793
817 36 525
818 36 168
819 36 686
820 36 241
821 36 839
822 36 100
823 36 744
824 36 102
825 36 649
826 36 806
827 36 883
828 36 322
829 36 958
830 36 760
831 36 519
832 36 549
833 35 830
834 35 311
835 35 443
836 35 412
837 35 138
838 35 513
839 35 97
840 35 501
841 35 165
842 35 369
843 35 555
844 35 325
845 35 711
846 35 621
847 35 831
848 35 269
849 35 756
850 35 400
851 35 444
852 35 880
853 35 398
854 35 615
855 35 644
856 35 700
857 34 924
858 34 548
859 34 448
860 34 333
861 34 946
862 34 517
863 34 296
864 34 617
865 34 734
866 34 959
867 34 394
868 34 35
869 34 733
870 34 505
871 34 631
872 34 377
873 33 108
874 33 33
875 33 876
876 33 993
877 33 947
878 33 969
879 33 677
880 33 842
881 33 341
882 33 990
883 33 775
884 33 583
885 33 95
886 32 745
887 32 907
888 32 461
889 32 35
890 32 13
891 32 249
892 32 933
893 32 80
894 32 790
895 32 599
896 32 184
897 32 233
898 32 705
899 31 923
900 31 688
901 31 525
902 31 471
903 31 852
904 31 313
905 31 710
906 31 977
907 30 171
908 30 774
909 30 339
910 30 348
911 30 961
912 30 334
913 30 599
914 30 66
915 30 920
916 30 911
917 30 92
918 30 481
919 30 832
920 30 839
921 30 42
922 30 651
923 30 480
924 30 145
925 29 63
926 29 175
927 29 622
928 29 266
929 29 236
930 29 65
931 29 383
932 29 60
933 29 7
934 29 308
935 29 217
936 29 897
937 29 575
938 28 931
939 28 390
940 28 930
941 28 485
942 28 309
943 28 975
944 28 806
945 28 341
946 28 325
947 28 647
948 28 813
949 28 361
950 28 521
951 28 812
952 28 303
953 28 123
954 28 113
955 28 320
956 27 565
957 27 921
958 27 252
959 27 281
960 27 888
961 27 733
962 27 306
963 27 710
964 27 537
965 27 590
966 27 189
967 26 131
968 26 202
969 26 613
970 26 12
971 26 25
972 26 268
973 26 331
974 26 739
975 26 49
976 26 699
977 26 846
978 26 252
979 26 511
980 25 945
981 25 722
982 25 953
983 25 388
984 25 341
985 25 787
986 25 582
987 25 439
988 25 656
989 25 917
990 25 380
991 24 326
992 24 251
993 24 524
994 24 992
995 24 943
996 24 730
997 24 890
998 24 279
999 24 594
1000 24 906
