results/OOEBPP/BPP_1000_120_0.2_0.8_8.txt.ins.log
296,295.121,38.3078,OPT,9634,0,0,AI,0,0.0506757,3.05068,0.62985,37.1621,0,2,0,58,58
